6
85855,78127,20549,42593,26068,32046
78127,69683,89452,83070,69817,23811
20549,89452,93221,41124,97635,89061
42593,83070,41124,72383,82084,65309
26068,69817,97635,82084,74821,70020
32046,23811,89061,65309,70020,67689
2
1